WARNING: for repeatability, setting FPU to use double precision
============================[ Problem Statistics ]=============================
|                                                                             |
|  Number of variables:            50                                         |
|  Number of clauses:             218                                         |
|  Parse time:                   0.00 s                                       |
|                                                                             |
============================[ Search Statistics ]==============================
| Conflicts |          ORIGINAL         |          LEARNT          | Progress |
|           |    Vars  Clauses Literals |    Limit  Clauses Lit/Cl |          |
===============================================================================
===============================================================================
restarts              : 1
conflicts             : 49             (34075 /sec)
decisions             : 55             (0.00 % random) (38248 /sec)
propagations          : 677            (470793 /sec)
conflict literals     : 145            (19.89 % deleted)
Memory used           : 20.00 MB
CPU time              : 0.001438 s

UNSATISFIABLE
